c File: instances/20_0.45_2.col
c
c Description: Random graph of size 20 vertices and P(0.44999999999999996) of edges between any two vertices.
p col 20 190
e 1 4
e 1 7
e 1 8
e 1 9
e 1 10
e 1 14
e 1 15
e 1 20
e 2 3
e 2 9
e 2 10
e 2 13
e 2 15
e 2 19
e 3 4
e 3 9
e 3 11
e 3 13
e 3 15
e 3 19
e 3 20
e 4 5
e 4 8
e 4 15
e 4 20
e 5 6
e 5 9
e 5 10
e 5 14
e 5 15
e 5 17
e 5 18
e 5 19
e 5 20
e 6 7
e 6 16
e 6 17
e 6 20
e 7 8
e 7 12
e 7 13
e 7 16
e 8 13
e 8 15
e 8 20
e 9 13
e 9 15
e 9 16
e 9 19
e 9 20
e 10 11
e 10 13
e 10 14
e 10 17
e 10 18
e 10 20
e 11 12
e 11 14
e 11 15
e 11 17
e 11 19
e 12 14
e 12 15
e 12 16
e 12 18
e 12 20
e 13 14
e 13 17
e 13 18
e 14 18
e 14 19
e 15 18
e 15 19
e 15 20
e 16 19
e 16 20
e 17 19
e 18 20
e 19 20